NAME: cities_5_6
TYPE: TSP
COMMENT: Generated from CSV
DIMENSION: 5
EDGE_WEIGHT_TYPE: EUC_2D
NODE_COORD_SECTION
1 79.69938372400678 57.01879943973333
2 96.71041252092868 26.591444624133874
3 90.79426435289842 77.34739171824818
4 48.03088808549944 11.674859943951388
5 5.053683737680004 92.84731233473494
EOF
